Cities:
0 72 12
1 14 70
2 100 13
3 63 72
4 54 90
5 96 24
6 92 69
7 88 93
8 97 42
9 93 49
10 88 96
11 14 80
12 5 29
13 60 33
14 66 76
15 46 66
16 55 80
17 53 83
18 94 10
19 80 63
20 30 77
21 33 98
22 87 78
23 96 17
24 46 18
25 45 49
26 90 13
27 77 41
28 21 61
29 82 14
30 76 44
31 48 39
32 21 82
33 21 42
34 30 58
35 26 78
36 98 54
37 86 80
38 66 31
39 4 21
40 86 55
41 6 48
42 61 88
43 8 63
44 27 76
45 31 66
46 47 41
47 16 93
48 93 66
49 24 40

Best Route:
11 32 35 44 20 45 34 28 1 43 41 33 49 12 39 24 13 38 27 30 40 9 36 8 5 23 2 18 26 29 0 31 46 25 15 16 17 4 42 14 3 19 6 48 22 37 7 10 21 47 11 
Total Distance:
590
